data/solutions/recovery/wellformed/intermediate/binding/wellformed_intermediate_instance41/4.sol
Elapsed time: 100.36
Upper bound: 263119.0
Planning weighted value: 1038766641.0
C[0]=263119.0
C[1]=263117.0
C[2]=263116.0
C[3]=263111.0
C[4]=263109.0
C[5]=263068.0
C[6]=263007.0
C[7]=263002.0
C[8]=262978.0
C[9]=262916.0
C[10]=262826.0
C[11]=0.0
y[0]=2
y[1]=2
y[2]=1
y[3]=10
y[4]=0
y[5]=7
y[6]=7
y[7]=2
y[8]=6
y[9]=4
y[10]=2
y[11]=4
y[12]=10
y[13]=8
y[14]=7
y[15]=2
y[16]=6
y[17]=10
y[18]=0
y[19]=10
y[20]=3
y[21]=10
y[22]=2
y[23]=9
y[24]=6
y[25]=3
y[26]=7
y[27]=1
y[28]=8
y[29]=10
y[30]=0
y[31]=2
y[32]=4
y[33]=9
y[34]=0
y[35]=1
y[36]=10
y[37]=3
y[38]=9
y[39]=1
y[40]=8
y[41]=10
y[42]=4
y[43]=3
y[44]=2
y[45]=2
y[46]=10
y[47]=0
y[48]=7
y[49]=8
y[50]=4
y[51]=0
y[52]=6
y[53]=5
y[54]=8
y[55]=3
y[56]=5
y[57]=3
y[58]=5
y[59]=3
y[60]=0
y[61]=4
y[62]=0
y[63]=2
y[64]=2
y[65]=8
y[66]=0
y[67]=7
y[68]=6
y[69]=2
y[70]=7
y[71]=1
y[72]=4
y[73]=7
y[74]=3
y[75]=0
y[76]=7
y[77]=9
y[78]=9
y[79]=8
y[80]=5
y[81]=7
y[82]=6
y[83]=4
y[84]=4
y[85]=8
y[86]=1
y[87]=9
y[88]=4
y[89]=0
y[90]=3
y[91]=4
y[92]=3
y[93]=0
y[94]=10
y[95]=1
y[96]=9
y[97]=4
y[98]=2
y[99]=0
y[100]=5
y[101]=6
y[102]=4
y[103]=6
y[104]=4
y[105]=6
y[106]=3
y[107]=1
y[108]=7
y[109]=0
y[110]=9
y[111]=7
y[112]=4
y[113]=10
y[114]=4
y[115]=1
y[116]=9
y[117]=1
y[118]=7
y[119]=9
y[120]=3
y[121]=7
y[122]=7
y[123]=1
y[124]=1
y[125]=1
y[126]=6
y[127]=8
y[128]=0
y[129]=0
y[130]=5
y[131]=8
y[132]=9
y[133]=9
y[134]=1
y[135]=0
y[136]=3
y[137]=10
y[138]=6
y[139]=10
y[140]=0
y[141]=5
y[142]=9
y[143]=6
y[144]=4
y[145]=5
y[146]=1
y[147]=3
y[148]=7
y[149]=10
y[150]=2
y[151]=9
y[152]=1
y[153]=5
y[154]=3
y[155]=7
y[156]=10
y[157]=2
y[158]=4
y[159]=8
y[160]=8
y[161]=5
y[162]=4
y[163]=1
y[164]=4
y[165]=10
y[166]=6
y[167]=1
y[168]=6
y[169]=3
y[170]=5
y[171]=0
y[172]=10
y[173]=8
y[174]=5
y[175]=8
y[176]=7
y[177]=4
y[178]=9
y[179]=5
y[180]=6
y[181]=6
y[182]=0
y[183]=0
y[184]=1
y[185]=9
y[186]=6
y[187]=7
y[188]=5
y[189]=9
y[190]=10
y[191]=3
y[192]=8
y[193]=8
y[194]=1
y[195]=1
y[196]=2
y[197]=3
y[198]=3
y[199]=9
y[200]=7
y[201]=2
y[202]=1
y[203]=10
y[204]=2
y[205]=4
y[206]=8
y[207]=1
y[208]=5
y[209]=5
y[210]=2
y[211]=10
y[212]=8
y[213]=3
y[214]=8
y[215]=6
y[216]=9
y[217]=6
y[218]=4
y[219]=4
y[220]=9
y[221]=8
y[222]=8
y[223]=3
y[224]=6
y[225]=9
y[226]=10
y[227]=3
y[228]=10
y[229]=3
y[230]=7
y[231]=1
y[232]=0
y[233]=3
y[234]=7
y[235]=10
y[236]=0
y[237]=5
y[238]=2
y[239]=10
y[240]=2
y[241]=0
y[242]=10
y[243]=2
y[244]=0
y[245]=2
y[246]=5
y[247]=5
y[248]=8
y[249]=5
y[250]=10
y[251]=8
y[252]=8
y[253]=6
y[254]=10
y[255]=2
y[256]=4
y[257]=0
y[258]=10
y[259]=6
y[260]=4
y[261]=7
y[262]=10
y[263]=7
y[264]=3
y[265]=5
y[266]=1
y[267]=4
y[268]=8
y[269]=6
y[270]=7
y[271]=2
y[272]=5
y[273]=6
y[274]=8
y[275]=10
y[276]=10
y[277]=9
y[278]=10
y[279]=7
y[280]=5
y[281]=0
y[282]=1
y[283]=2
y[284]=6
y[285]=10
y[286]=2
y[287]=5
y[288]=2
y[289]=4
y[290]=6
y[291]=10
y[292]=1
y[293]=2
y[294]=10
y[295]=7
y[296]=10
y[297]=2
y[298]=5
y[299]=10
y[300]=3
y[301]=8
y[302]=9
y[303]=9
y[304]=7
y[305]=6
y[306]=10
y[307]=5
y[308]=3
y[309]=1
y[310]=10
y[311]=7
