data/solutions/recovery/wellformed/intermediate/binding/wellformed_intermediate_instance41/4.log

Log started (V12.6.3.0) Fri Apr 20 17:59:24 2018

New value for default parallel thread count: 1

Problem '/tmp/tmpctKfj6.pyomo.lp' read.
Read time = 0.15 sec. (12.97 ticks)

Problem name         : /tmp/tmpctKfj6.pyomo.lp
Objective sense      : Minimize
Variables            :    3758  [Nneg: 1,  Binary: 3744,  General Integer: 13]
Objective nonzeros   :       1
Linear constraints   :     650  [Less: 324,  Equal: 326]
  Nonzeros           :  961693
  RHS nonzeros       :     313

Variables            : Min LB: 0.000000         Max UB: 1.000000       
Objective nonzeros   : Min   : 1.000000         Max   : 1.000000       
Linear constraints   :
  Nonzeros           : Min   : 1.000000         Max   : 19298.00       
  RHS nonzeros       : Min   : 1.000000         Max   : 1.000000       
Tried aggregator 2 times.
MIP Presolve eliminated 595 rows and 3383 columns.
Aggregator did 11 substitutions.
Reduced MIP has 44 rows, 364 columns, and 737 nonzeros.
Reduced MIP has 363 binaries, 1 generals, 0 SOSs, and 0 indicators.
Presolve time = 0.04 sec. (57.32 ticks)
Found incumbent of value 629608.000000 after 0.08 sec. (79.67 ticks)
Probing time = 0.00 sec. (0.37 ticks)
Tried aggregator 1 time.
Reduced MIP has 44 rows, 364 columns, and 737 nonzeros.
Reduced MIP has 363 binaries, 1 generals, 0 SOSs, and 0 indicators.
Presolve time = 0.00 sec. (0.61 ticks)
Probing time = 0.00 sec. (0.37 ticks)
Clique table members: 33.
MIP emphasis: balance optimality and feasibility.
MIP search method: dynamic search.
Parallel mode: none, using 1 thread.
Root relaxation solution time = 0.00 sec. (0.72 ticks)

        Nodes                                         Cuts/
   Node  Left     Objective  IInf  Best Integer    Best Bound    ItCnt     Gap

*     0+    0                       629608.0000   252360.0000            59.92%
      0     0   263033.5455    20   629608.0000   263033.5455       78   58.22%
*     0+    0                       280536.0000   263033.5455             6.24%
      0     0   263034.0000    23   280536.0000       Cuts: 8      101    6.24%
*     0+    0                       273269.0000   263034.0000             3.75%
      0     0   263034.0000    25   273269.0000      Cuts: 21      150    3.75%
*     0+    0                       270592.0000   263034.0000             2.79%
*     0+    0                       268401.0000   263034.0000             2.00%
*     0+    0                       267747.0000   263034.0000             1.76%
*     0+    0                       267681.0000   263034.0000             1.74%
      0     2   263034.0000    14   267681.0000   263034.0000      150    1.74%
Elapsed time = 0.10 sec. (100.16 ticks, tree = 0.01 MB, solutions = 7)
*    60+   60                       267194.0000   263034.0000             1.56%
*    70+   70                       267090.0000   263034.0000             1.52%
*    80+   80                       266510.0000   263034.0000             1.30%
*   100+  100                       266502.0000   263034.0000             1.30%
*   100+   98                       266095.0000   263034.0000             1.15%
*   110+  108                       265608.0000   263034.0000             0.97%
*   130+  122                       264856.0000   263034.0000             0.69%
*   140+  132                       264795.0000   263034.0000             0.67%
*   150+  142                       264620.0000   263034.0000             0.60%
*   160+  152                       264565.0000   263034.0000             0.58%
*   170+  162                       264556.0000   263034.0000             0.58%
*   210+  202                       264509.0000   263034.0000             0.56%
*   240+  226                       264261.0000   263034.0000             0.46%
*   340+  307                       264050.0000   263034.0000             0.38%
*   488+  374                       263728.0000   263034.0000             0.26%
*   489+  375                       263693.0000   263034.0000             0.25%
*   489+  375                       263673.0000   263034.0000             0.24%
*   489+  375                       263651.0000   263034.0000             0.23%
*   489+  375                       263650.0000   263034.0000             0.23%
*   489+  375                       263590.0000   263034.0000             0.21%
    489   377   263034.0000    17   263590.0000   263034.0000     1731    0.21%
    490   378   263034.0000    19   263590.0000   263034.0000     2029    0.21%
    491   379   263034.0000    19   263590.0000   263034.0000     2038    0.21%
    492   380   263034.0000    20   263590.0000   263034.0000     2040    0.21%
    493   380   263034.0000    20   263590.0000   263034.0000     2050    0.21%
    494   379   263071.0000    19   263590.0000   263034.0000     2071    0.21%
    495   380   263071.0000    18   263590.0000   263034.0000     2072    0.21%
    496   380   263075.2262    20   263590.0000   263034.0000     2078    0.21%
    497   380   263076.0000    19   263590.0000   263034.0000     2079    0.21%
*   890+  346                       263443.0000   263034.0000             0.16%
*  1090+  372                       263398.0000   263034.0000             0.14%
   1190   457   263093.7000    17   263398.0000   263034.0000     4175    0.14%
Elapsed time = 1.02 sec. (1062.85 ticks, tree = 0.15 MB, solutions = 29)
*  1290+  539                       263391.0000   263034.0000             0.14%
  10089  7685   263209.0000    10   263391.0000   263034.0000    25426    0.14%
  10090  7686   263209.0000     9   263391.0000   263034.0000    25429    0.14%
  10091  7687   263209.0000    10   263391.0000   263034.0000    25431    0.14%
  10092  7688   263209.0000    10   263391.0000   263034.0000    25433    0.14%
  10093  7689   263209.0000    10   263391.0000   263034.0000    25436    0.14%
  10094  7690   263209.0000     9   263391.0000   263034.0000    25438    0.14%
  10095  7691   263209.0000     9   263391.0000   263034.0000    25439    0.14%
  10096  7692   263209.0000     9   263391.0000   263034.0000    25440    0.14%
  10097  7693   263209.0000     9   263391.0000   263034.0000    25441    0.14%
  10098  7694   263209.0000     9   263391.0000   263034.0000    25442    0.14%
Elapsed time = 1.92 sec. (2016.96 ticks, tree = 2.67 MB, solutions = 30)
  24814 19578   263268.0000     7   263391.0000   263034.0000    56798    0.14%
  24815 19579   263268.0000     8   263391.0000   263034.0000    56800    0.14%
  24816 19580   263268.0000     7   263391.0000   263034.0000    56801    0.14%
  24817 19581   263268.0000     8   263391.0000   263034.0000    56803    0.14%
  24818 19582   263268.0000     7   263391.0000   263034.0000    56804    0.14%
  24819 19581        cutoff         263391.0000   263034.0000    56807    0.14%
  24820 19580        cutoff         263391.0000   263034.0000    56811    0.14%
  24821 19581   263128.7000    18   263391.0000   263034.0000    56816    0.14%
  24822 19582   263128.7000    17   263391.0000   263034.0000    56820    0.14%
  24823 19583   263128.7000    17   263391.0000   263034.0000    56822    0.14%
Elapsed time = 2.85 sec. (2971.16 ticks, tree = 7.34 MB, solutions = 30)
  39832 31790   263366.6000    17   263391.0000   263034.0000    91350    0.14%
  39833 31791   263366.6000    17   263391.0000   263034.0000    91352    0.14%
  39834 31792   263366.6000    17   263391.0000   263034.0000    91353    0.14%
  39835 31793   263366.6000    17   263391.0000   263034.0000    91355    0.14%
  39836 31794   263366.6000    17   263391.0000   263034.0000    91356    0.14%
  39837 31793        cutoff         263391.0000   263034.0000    91359    0.14%
  39838 31792        cutoff         263391.0000   263034.0000    91363    0.14%
  39839 31792   263036.2000    19   263391.0000   263034.0000    91384    0.14%
  39840 31793   263036.2000    17   263391.0000   263034.0000    91385    0.14%
  39841 31794   263036.2000    17   263391.0000   263034.0000    91386    0.14%
Elapsed time = 3.77 sec. (3925.82 ticks, tree = 11.37 MB, solutions = 30)
  55276 44338   263034.0000    20   263391.0000   263034.0000   128667    0.14%
  55277 44339   263034.0000    20   263391.0000   263034.0000   128668    0.14%
  55278 44340   263034.0000    20   263391.0000   263034.0000   128669    0.14%
  55279 44341   263034.0000    20   263391.0000   263034.0000   128670    0.14%
  55280 44342   263034.0000    20   263391.0000   263034.0000   128673    0.14%
  55281 44343   263034.0000    20   263391.0000   263034.0000   128674    0.14%
  55282 44344   263034.0000    20   263391.0000   263034.0000   128676    0.14%
  55283 44345   263034.0000    20   263391.0000   263034.0000   128679    0.14%
  55284 44346   263034.0000    20   263391.0000   263034.0000   128680    0.14%
  55285 44347   263034.0000    20   263391.0000   263034.0000   128681    0.14%
Elapsed time = 4.71 sec. (4879.93 ticks, tree = 16.39 MB, solutions = 30)
  69002 55184   263297.0000     8   263391.0000   263034.0000   167150    0.14%
  69003 55185   263297.0000    10   263391.0000   263034.0000   167153    0.14%
  69004 55185   263297.0000     8   263391.0000   263034.0000   167155    0.14%
  69005 55184        cutoff         263391.0000   263034.0000   167157    0.14%
  69006 55185   263132.2000    19   263391.0000   263034.0000   167162    0.14%
  69007 55186   263152.6667    17   263391.0000   263034.0000   167164    0.14%
  69008 55187   263152.6667    17   263391.0000   263034.0000   167168    0.14%
  69009 55188   263174.7500    14   263391.0000   263034.0000   167177    0.14%
  69010 55189   263174.7500    15   263391.0000   263034.0000   167181    0.14%
  69011 55190   263174.7500    15   263391.0000   263034.0000   167182    0.14%
Elapsed time = 5.64 sec. (5834.59 ticks, tree = 19.91 MB, solutions = 30)
* 76451 49890      integral     0   263345.0000   263034.0000   188787    0.12%
  82644 54735        cutoff         263345.0000   263034.0000   207635    0.12%
  82645 54736   263109.1111    17   263345.0000   263034.0000   207637    0.12%
  82646 54737   263109.1111    17   263345.0000   263034.0000   207639    0.12%
  82647 54738   263109.1111    17   263345.0000   263034.0000   207640    0.12%
  82648 54739   263109.1111    16   263345.0000   263034.0000   207643    0.12%
  82649 54740   263109.1111    16   263345.0000   263034.0000   207646    0.12%
  82650 54741   263109.1111    16   263345.0000   263034.0000   207647    0.12%
  82651 54742   263109.1111    16   263345.0000   263034.0000   207648    0.12%
  82652 54743   263109.1111    16   263345.0000   263034.0000   207649    0.12%
  82653 54744   263109.1111    16   263345.0000   263034.0000   207651    0.12%
Elapsed time = 6.57 sec. (6788.74 ticks, tree = 19.67 MB, solutions = 31)
  96065 64928   263228.4286    13   263345.0000   263034.0000   245179    0.12%
  96066 64929   263228.4286    12   263345.0000   263034.0000   245180    0.12%
  96067 64930   263228.4286    16   263345.0000   263034.0000   245183    0.12%
  96068 64931   263228.4286    14   263345.0000   263034.0000   245184    0.12%
  96069 64932   263228.4286    14   263345.0000   263034.0000   245185    0.12%
  96070 64933   263228.4286    14   263345.0000   263034.0000   245188    0.12%
  96071 64934   263228.4286    13   263345.0000   263034.0000   245189    0.12%
  96072 64935   263228.4286    15   263345.0000   263034.0000   245191    0.12%
  96073 64936   263228.4286    15   263345.0000   263034.0000   245192    0.12%
  96074 64937   263228.4286    15   263345.0000   263034.0000   245194    0.12%
Elapsed time = 7.51 sec. (7742.87 ticks, tree = 23.03 MB, solutions = 31)
 109504 75397   263135.0000    17   263345.0000   263034.0000   287334    0.12%
 109505 75398   263135.0000    20   263345.0000   263034.0000   287342    0.12%
 109506 75399   263135.0000    20   263345.0000   263034.0000   287343    0.12%
 109507 75400   263135.0000    19   263345.0000   263034.0000   287344    0.12%
 109508 75401   263135.0000    17   263345.0000   263034.0000   287348    0.12%
 109509 75402   263135.0000    17   263345.0000   263034.0000   287355    0.12%
 109510 75403   263135.0000    17   263345.0000   263034.0000   287356    0.12%
 109511 75404   263135.0000    15   263345.0000   263034.0000   287357    0.12%
 109512 75405   263135.0000    18   263345.0000   263034.0000   287361    0.12%
 109513 75406   263135.0000    17   263345.0000   263034.0000   287362    0.12%
Elapsed time = 8.43 sec. (8697.09 ticks, tree = 28.40 MB, solutions = 31)
*113217 71846      integral     0   263321.0000   263034.0000   301020    0.11%
*113317+70679                       263316.0000   263034.0000             0.11%
 121080 76375   263085.6667    19   263316.0000   263034.0000   329272    0.11%
 121081 76374    infeasible         263316.0000   263034.0000   329272    0.11%
 121082 76375   263147.0000    16   263316.0000   263034.0000   329273    0.11%
 121083 76376   263147.0000    14   263316.0000   263034.0000   329280    0.11%
 121084 76377   263147.0000    15   263316.0000   263034.0000   329283    0.11%
 121085 76378   263147.0000    15   263316.0000   263034.0000   329285    0.11%
 121086 76379   263147.0000    16   263316.0000   263034.0000   329287    0.11%
 121087 76380   263147.0000    15   263316.0000   263034.0000   329289    0.11%
 121088 76381   263147.0000    16   263316.0000   263034.0000   329293    0.11%
 159609 105551   263034.0000    19   263316.0000   263034.0000   451380    0.11%
Elapsed time = 12.09 sec. (12512.27 ticks, tree = 38.35 MB, solutions = 33)
 208532 144069   263034.0000    20   263316.0000   263034.0000   600863    0.11%
 208533 144070   263065.8000    19   263316.0000   263034.0000   600864    0.11%
 208534 144071   263127.5556    16   263316.0000   263034.0000   600870    0.11%
 208535 144072   263127.5556    16   263316.0000   263034.0000   600871    0.11%
 208536 144073   263127.5556    21   263316.0000   263034.0000   600877    0.11%
 208537 144074   263127.5556    17   263316.0000   263034.0000   600878    0.11%
 208538 144075   263127.5556    17   263316.0000   263034.0000   600879    0.11%
 208539 144076   263127.5556    17   263316.0000   263034.0000   600880    0.11%
 208540 144077   263127.5556    15   263316.0000   263034.0000   600884    0.11%
 208541 144078   263127.5556    17   263316.0000   263034.0000   600886    0.11%
Elapsed time = 15.73 sec. (16328.26 ticks, tree = 52.81 MB, solutions = 33)
*242642 137646      integral     0   263268.0000   263034.0000   719766    0.09%
 250650 143058   263062.5000    19   263268.0000   263034.0000   749138    0.09%
 250651 143059   263062.5000    21   263268.0000   263034.0000   749144    0.09%
 250652 143060   263062.5000    19   263268.0000   263034.0000   749146    0.09%
 250653 143061   263091.0000    17   263268.0000   263034.0000   749153    0.09%
 250654 143062   263091.0000    15   263268.0000   263034.0000   749155    0.09%
 250655 143063   263091.0000    16   263268.0000   263034.0000   749165    0.09%
 250656 143064   263091.0000    16   263268.0000   263034.0000   749166    0.09%
 250657 143065   263091.0000    16   263268.0000   263034.0000   749167    0.09%
 250658 143066   263091.0000    14   263268.0000   263034.0000   749168    0.09%
 250659 143067   263091.0000    14   263268.0000   263034.0000   749171    0.09%
Elapsed time = 19.41 sec. (20143.91 ticks, tree = 53.40 MB, solutions = 34)
 292508 174929   263158.8000    17   263268.0000   263034.0000   907677    0.09%
 292509 174930   263158.8000    19   263268.0000   263034.0000   907680    0.09%
 292510 174931   263158.8000    23   263268.0000   263034.0000   907689    0.09%
 292511 174931   263158.8000    21   263268.0000   263034.0000   907695    0.09%
 292512 174932   263173.7778    22   263268.0000   263034.0000   907704    0.09%
 292513 174933   263173.7778    20   263268.0000   263034.0000   907707    0.09%
 292514 174934   263173.7778    20   263268.0000   263034.0000   907708    0.09%
 292515 174935   263182.0000    16   263268.0000   263034.0000   907709    0.09%
 292516 174936   263185.6250    14   263268.0000   263034.0000   907715    0.09%
 292517 174937   263185.6250    15   263268.0000   263034.0000   907717    0.09%
Elapsed time = 23.04 sec. (23959.66 ticks, tree = 63.75 MB, solutions = 34)
*329520+177728                       263240.0000   263034.0000             0.08%
 331495 179030   263034.0000    22   263240.0000   263034.0000  1062672    0.08%
 331496 179029        cutoff         263240.0000   263034.0000  1062674    0.08%
 331497 179030   263077.0000    20   263240.0000   263034.0000  1062677    0.08%
 331498 179031   263200.7500    17   263240.0000   263034.0000  1062682    0.08%
 331499 179032   263200.7500    14   263240.0000   263034.0000  1062683    0.08%
 331500 179033   263200.7500    14   263240.0000   263034.0000  1062684    0.08%
 331501 179034   263200.7500    13   263240.0000   263034.0000  1062686    0.08%
 331502 179035   263200.7500    13   263240.0000   263034.0000  1062687    0.08%
 331503 179036   263200.7500    14   263240.0000   263034.0000  1062690    0.08%
 331504 179037   263200.7500    14   263240.0000   263034.0000  1062691    0.08%
Elapsed time = 26.62 sec. (27775.94 ticks, tree = 66.10 MB, solutions = 35)
 368800 205566   263182.9000    17   263240.0000   263034.0000  1203108    0.08%
 368801 205567   263182.9000    18   263240.0000   263034.0000  1203111    0.08%
 368802 205568   263182.9000    19   263240.0000   263034.0000  1203112    0.08%
 368803 205569   263182.9000    19   263240.0000   263034.0000  1203113    0.08%
 368804 205570   263182.9000    19   263240.0000   263034.0000  1203115    0.08%
 368805 205569        cutoff         263240.0000   263034.0000  1203116    0.08%
 368806 205568        cutoff         263240.0000   263034.0000  1203121    0.08%
 368807 205569   263034.0000    22   263240.0000   263034.0000  1203123    0.08%
 368808 205570   263034.0000    20   263240.0000   263034.0000  1203124    0.08%
 368809 205571   263034.0000    20   263240.0000   263034.0000  1203125    0.08%
Elapsed time = 30.39 sec. (31592.34 ticks, tree = 74.92 MB, solutions = 35)
 405263 231711   263034.0000    20   263240.0000   263034.0000  1346433    0.08%
 405264 231712   263034.0000    21   263240.0000   263034.0000  1346440    0.08%
 405265 231713   263034.0000    19   263240.0000   263034.0000  1346447    0.08%
 405266 231714   263034.0000    21   263240.0000   263034.0000  1346450    0.08%
 405267 231715   263034.0000    21   263240.0000   263034.0000  1346457    0.08%
 405268 231716   263034.0000    19   263240.0000   263034.0000  1346466    0.08%
 405269 231716   263034.0000    20   263240.0000   263034.0000  1346475    0.08%
 405270 231717   263034.0000    19   263240.0000   263034.0000  1346476    0.08%
 405271 231718   263034.0000    19   263240.0000   263034.0000  1346478    0.08%
 405272 231719   263034.0000    19   263240.0000   263034.0000  1346481    0.08%
Elapsed time = 34.07 sec. (35408.14 ticks, tree = 85.12 MB, solutions = 35)
*409595 224632      integral     0   263232.0000   263034.0000  1361380    0.08%
 439280 242352   263131.0000    12   263232.0000   263034.0000  1490490    0.08%
 439281 242353   263131.0000    10   263232.0000   263034.0000  1490492    0.08%
 439282 242354   263131.0000    10   263232.0000   263034.0000  1490496    0.08%
 439283 242355   263131.0000    10   263232.0000   263034.0000  1490497    0.08%
 439284 242356   263131.0000    12   263232.0000   263034.0000  1490502    0.08%
 439285 242357   263131.0000    10   263232.0000   263034.0000  1490503    0.08%
 439286 242358   263131.0000    10   263232.0000   263034.0000  1490505    0.08%
 439287 242359   263131.0000    10   263232.0000   263034.0000  1490506    0.08%
 439288 242360   263131.0000    10   263232.0000   263034.0000  1490511    0.08%
 439289 242361   263131.0000    12   263232.0000   263034.0000  1490515    0.08%
Elapsed time = 37.85 sec. (39223.37 ticks, tree = 88.57 MB, solutions = 36)
*449090+239227                       263224.0000   263034.0000             0.07%
 472715 253474   263104.1111    18   263224.0000   263034.0000  1622531    0.07%
 472716 253475   263104.1111    19   263224.0000   263034.0000  1622534    0.07%
 472717 253476   263104.1111    18   263224.0000   263034.0000  1622543    0.07%
 472718 253475        cutoff         263224.0000   263034.0000  1622547    0.07%
 472719 253476   263104.1111    17   263224.0000   263034.0000  1622554    0.07%
 472720 253477   263104.1111    20   263224.0000   263034.0000  1622557    0.07%
 472721 253477   263104.1111    18   263224.0000   263034.0000  1622558    0.07%
 472722 253478   263104.1111    17   263224.0000   263034.0000  1622559    0.07%
 472723 253478   263104.1111    17   263224.0000   263034.0000  1622561    0.07%
 472724 253479   263218.0000    10   263224.0000   263034.0000  1622565    0.07%
Elapsed time = 41.71 sec. (43038.88 ticks, tree = 92.12 MB, solutions = 37)
*506569 229117      integral     0   263209.0000   263034.0000  1749749    0.07%
 508007 229578   263113.6000    20   263209.0000   263034.0000  1755856    0.07%
 508008 229579   263113.6000    21   263209.0000   263034.0000  1755857    0.07%
 508009 229580   263113.6000    21   263209.0000   263034.0000  1755858    0.07%
 508010 229581   263113.6000    21   263209.0000   263034.0000  1755859    0.07%
 508011 229582   263113.6000    21   263209.0000   263034.0000  1755860    0.07%
 508012 229583   263113.6000    21   263209.0000   263034.0000  1755862    0.07%
 508013 229584   263113.6000    20   263209.0000   263034.0000  1755863    0.07%
 508014 229585   263113.6000    20   263209.0000   263034.0000  1755868    0.07%
 508015 229586   263189.5556    18   263209.0000   263034.0000  1755871    0.07%
 508016 229587   263189.5556    19   263209.0000   263034.0000  1755872    0.07%
Elapsed time = 45.41 sec. (46854.22 ticks, tree = 83.80 MB, solutions = 38)
 534403 242939   263173.6250    15   263209.0000   263034.0000  1909143    0.07%
 534404 242940   263173.6250    15   263209.0000   263034.0000  1909145    0.07%
 534405 242941   263173.6250    15   263209.0000   263034.0000  1909146    0.07%
 534406 242942   263173.6250    15   263209.0000   263034.0000  1909147    0.07%
 534407 242943   263173.6250    14   263209.0000   263034.0000  1909148    0.07%
 534408 242944   263173.6250    15   263209.0000   263034.0000  1909149    0.07%
 534409 242945   263173.6250    14   263209.0000   263034.0000  1909151    0.07%
 534410 242946   263173.6250    14   263209.0000   263034.0000  1909152    0.07%
 534411 242947   263173.6250    15   263209.0000   263034.0000  1909155    0.07%
 534412 242948   263173.6250    17   263209.0000   263034.0000  1909157    0.07%
Elapsed time = 49.17 sec. (50669.61 ticks, tree = 88.21 MB, solutions = 38)
 564586 262941   263093.8414    21   263209.0000   263034.0000  2068616    0.07%
 564587 262942   263093.8414    22   263209.0000   263034.0000  2068622    0.07%
 564588 262943   263093.8414    21   263209.0000   263034.0000  2068625    0.07%
 564589 262944   263093.8414    23   263209.0000   263034.0000  2068628    0.07%
 564590 262945   263095.6399    27   263209.0000   263034.0000  2068634    0.07%
 564591 262946   263095.6399    25   263209.0000   263034.0000  2068635    0.07%
 564592 262947   263095.6399    28   263209.0000   263034.0000  2068637    0.07%
 564593 262948   263095.6399    27   263209.0000   263034.0000  2068638    0.07%
 564594 262949   263095.6399    27   263209.0000   263034.0000  2068640    0.07%
 564595 262950   263097.3751    25   263209.0000   263034.0000  2068645    0.07%
Elapsed time = 52.80 sec. (54484.92 ticks, tree = 94.79 MB, solutions = 38)
 603391 292960        cutoff         263209.0000   263034.0000  2235492    0.07%
 603392 292961   263045.4417    26   263209.0000   263034.0000  2235502    0.07%
 603393 292962   263045.4417    26   263209.0000   263034.0000  2235503    0.07%
 603394 292962   263045.4417    26   263209.0000   263034.0000  2235504    0.07%
 603395 292963   263047.6599    24   263209.0000   263034.0000  2235505    0.07%
 603396 292964   263047.6599    24   263209.0000   263034.0000  2235506    0.07%
 603397 292965   263047.6599    22   263209.0000   263034.0000  2235518    0.07%
 603398 292964        cutoff         263209.0000   263034.0000  2235519    0.07%
 603399 292965   263047.6599    23   263209.0000   263034.0000  2235526    0.07%
 603400 292966   263047.6599    23   263209.0000   263034.0000  2235536    0.07%
Elapsed time = 56.45 sec. (58301.78 ticks, tree = 106.30 MB, solutions = 38)
 645674 328380   263167.1250    14   263209.0000   263034.0000  2399245    0.07%
 645675 328381   263167.1250    15   263209.0000   263034.0000  2399246    0.07%
 645676 328382   263167.1250    14   263209.0000   263034.0000  2399250    0.07%
 645677 328383   263167.1250    18   263209.0000   263034.0000  2399253    0.07%
 645678 328384   263167.1250    18   263209.0000   263034.0000  2399254    0.07%
 645679 328385   263167.1250    17   263209.0000   263034.0000  2399256    0.07%
 645680 328386   263167.1250    17   263209.0000   263034.0000  2399257    0.07%
 645681 328387   263167.1250    17   263209.0000   263034.0000  2399259    0.07%
 645682 328388   263167.1250    17   263209.0000   263034.0000  2399261    0.07%
 645683 328389   263167.1250    15   263209.0000   263034.0000  2399264    0.07%
Elapsed time = 59.93 sec. (62117.14 ticks, tree = 119.80 MB, solutions = 38)
 688854 363250   263109.0000    17   263209.0000   263034.0000  2566777    0.07%
 688855 363251   263109.0000    15   263209.0000   263034.0000  2566778    0.07%
 688856 363252   263109.0000    15   263209.0000   263034.0000  2566781    0.07%
 688857 363253   263109.0000    16   263209.0000   263034.0000  2566783    0.07%
 688858 363254   263109.0000    16   263209.0000   263034.0000  2566784    0.07%
 688859 363255   263164.0000    16   263209.0000   263034.0000  2566787    0.07%
 688860 363254    infeasible         263209.0000   263034.0000  2566787    0.07%
 688861 363255   263164.0000    14   263209.0000   263034.0000  2566788    0.07%
 688862 363256   263164.0000    14   263209.0000   263034.0000  2566790    0.07%
 688863 363257   263164.0000    14   263209.0000   263034.0000  2566793    0.07%
Elapsed time = 63.47 sec. (65933.12 ticks, tree = 131.01 MB, solutions = 38)
 729613 395303        cutoff         263209.0000   263034.0000  2739831    0.07%
 729614 395304   263183.5000    17   263209.0000   263034.0000  2739834    0.07%
 729615 395305   263183.5000    16   263209.0000   263034.0000  2739836    0.07%
 729616 395306   263183.5000    15   263209.0000   263034.0000  2739838    0.07%
 729617 395307   263183.5000    16   263209.0000   263034.0000  2739840    0.07%
 729618 395308   263183.5000    15   263209.0000   263034.0000  2739841    0.07%
 729619 395309   263183.5000    15   263209.0000   263034.0000  2739843    0.07%
 729620 395310   263183.5000    15   263209.0000   263034.0000  2739844    0.07%
 729621 395311   263183.5000    16   263209.0000   263034.0000  2739845    0.07%
 729622 395311   263183.5000    17   263209.0000   263034.0000  2739853    0.07%
Elapsed time = 67.20 sec. (69748.39 ticks, tree = 144.04 MB, solutions = 38)
 769128 427695   263080.4348    21   263209.0000   263034.0000  2893078    0.07%
 769129 427696   263080.4348    24   263209.0000   263034.0000  2893080    0.07%
 769130 427697   263080.4348    22   263209.0000   263034.0000  2893081    0.07%
 769131 427698   263080.4348    23   263209.0000   263034.0000  2893093    0.07%
 769132 427699   263080.4348    21   263209.0000   263034.0000  2893094    0.07%
 769133 427700   263080.4348    19   263209.0000   263034.0000  2893097    0.07%
 769134 427701   263080.4348    24   263209.0000   263034.0000  2893108    0.07%
 769135 427702   263080.4348    24   263209.0000   263034.0000  2893109    0.07%
 769136 427703   263080.4348    25   263209.0000   263034.0000  2893110    0.07%
 769137 427704   263080.4348    24   263209.0000   263034.0000  2893111    0.07%
Elapsed time = 70.75 sec. (73563.86 ticks, tree = 154.41 MB, solutions = 38)
 813412 465677   263109.0000    18   263209.0000   263034.0000  3048803    0.07%
 813413 465678   263109.0000    21   263209.0000   263034.0000  3048834    0.07%
 813414 465679   263109.0000    18   263209.0000   263034.0000  3048836    0.07%
 813415 465680   263109.0000    23   263209.0000   263034.0000  3048845    0.07%
 813416 465681   263109.0000    21   263209.0000   263034.0000  3048846    0.07%
 813417 465682   263109.0000    22   263209.0000   263034.0000  3048850    0.07%
 813418 465683   263109.0000    19   263209.0000   263034.0000  3048882    0.07%
 813419 465684   263109.0000    26   263209.0000   263034.0000  3048921    0.07%
 813420 465685   263109.0000    18   263209.0000   263034.0000  3048930    0.07%
 813421 465686   263109.0000    17   263209.0000   263034.0000  3048936    0.07%
Elapsed time = 74.29 sec. (77380.20 ticks, tree = 166.53 MB, solutions = 38)
 852099 495618   263202.2857    15   263209.0000   263034.0000  3214737    0.07%
 852100 495618   263202.2857    15   263209.0000   263034.0000  3214738    0.07%
 852101 495617        cutoff         263209.0000   263034.0000  3214739    0.07%
 852102 495617   263045.4417    25   263209.0000   263034.0000  3214745    0.07%
 852103 495618   263047.6599    23   263209.0000   263034.0000  3214748    0.07%
 852104 495619   263047.6599    23   263209.0000   263034.0000  3214754    0.07%
 852105 495620   263047.6599    23   263209.0000   263034.0000  3214755    0.07%
 852106 495619        cutoff         263209.0000   263034.0000  3214759    0.07%
 852107 495620   263168.3333    21   263209.0000   263034.0000  3214767    0.07%
 852108 495621   263168.3333    23   263209.0000   263034.0000  3214773    0.07%
Elapsed time = 77.84 sec. (81197.18 ticks, tree = 179.45 MB, solutions = 38)
 893328 529485   263109.0000    14   263209.0000   263034.0000  3375670    0.07%
 893329 529486   263109.0000    14   263209.0000   263034.0000  3375682    0.07%
 893330 529487   263109.0000    14   263209.0000   263034.0000  3375683    0.07%
 893331 529488   263198.1667    15   263209.0000   263034.0000  3375695    0.07%
 893332 529487        cutoff         263209.0000   263034.0000  3375698    0.07%
 893333 529486    infeasible         263209.0000   263034.0000  3375698    0.07%
 893334 529485        cutoff         263209.0000   263034.0000  3375701    0.07%
 893335 529486   263045.4417    24   263209.0000   263034.0000  3375709    0.07%
 893336 529486   263045.4417    24   263209.0000   263034.0000  3375710    0.07%
 893337 529487   263047.6599    22   263209.0000   263034.0000  3375711    0.07%
Elapsed time = 81.36 sec. (85012.74 ticks, tree = 190.18 MB, solutions = 38)
 937983 567158   263178.6667    16   263209.0000   263034.0000  3539930    0.07%
 937984 567159   263178.6667    16   263209.0000   263034.0000  3539931    0.07%
 937985 567160   263178.6667    19   263209.0000   263034.0000  3539936    0.07%
 937986 567161   263178.6667    18   263209.0000   263034.0000  3539937    0.07%
 937987 567162   263178.6667    19   263209.0000   263034.0000  3539938    0.07%
 937988 567163   263178.6667    22   263209.0000   263034.0000  3539940    0.07%
 937989 567164   263178.6667    21   263209.0000   263034.0000  3539941    0.07%
 937990 567165   263178.6667    17   263209.0000   263034.0000  3539942    0.07%
 937991 567166   263178.6667    16   263209.0000   263034.0000  3539944    0.07%
 937992 567167   263178.6667    18   263209.0000   263034.0000  3539953    0.07%
Elapsed time = 84.85 sec. (88827.98 ticks, tree = 205.97 MB, solutions = 38)
 982299 604115   263114.5556    22   263209.0000   263034.0000  3711834    0.07%
 982300 604116   263114.5556    22   263209.0000   263034.0000  3711836    0.07%
 982301 604117   263114.5556    22   263209.0000   263034.0000  3711837    0.07%
 982302 604118   263114.5556    21   263209.0000   263034.0000  3711838    0.07%
 982303 604119   263114.5556    21   263209.0000   263034.0000  3711841    0.07%
 982304 604120   263143.7143    13   263209.0000   263034.0000  3711846    0.07%
 982305 604121   263143.7143    14   263209.0000   263034.0000  3711848    0.07%
 982306 604121   263143.7143    16   263209.0000   263034.0000  3711860    0.07%
 982307 604122   263171.3333    14   263209.0000   263034.0000  3711876    0.07%
 982308 604123   263171.3333    14   263209.0000   263034.0000  3711877    0.07%
Elapsed time = 88.36 sec. (92643.49 ticks, tree = 217.76 MB, solutions = 38)
*1003390+364114                       263132.0000   263034.0000             0.04%
*1003490+323105                       263119.0000   263034.0000             0.03%
 1005690 324838   263093.7000    20   263119.0000   263034.0000  3799959    0.03%
 1005691 324839   263093.7000    20   263119.0000   263034.0000  3799963    0.03%
 1005692 324840   263093.7000    19   263119.0000   263034.0000  3799964    0.03%
 1005693 324841   263093.7000    20   263119.0000   263034.0000  3799965    0.03%
 1005694 324842   263093.7000    19   263119.0000   263034.0000  3799966    0.03%
 1005695 324843   263093.7000    19   263119.0000   263034.0000  3799970    0.03%
 1005696 324844   263093.7000    20   263119.0000   263034.0000  3799976    0.03%
 1005697 324845   263093.7000    20   263119.0000   263034.0000  3799978    0.03%
 1005698 324844        cutoff         263119.0000   263034.0000  3799980    0.03%
 1005699 324845   263093.7000    20   263119.0000   263034.0000  3799988    0.03%
Elapsed time = 92.10 sec. (96568.20 ticks, tree = 126.01 MB, solutions = 40)
 1041185 353287   263109.0000    16   263119.0000   263034.0000  3941724    0.03%
 1041186 353287   263109.0000    16   263119.0000   263034.0000  3941726    0.03%
 1041187 353286        cutoff         263119.0000   263034.0000  3941727    0.03%
 1041188 353287   263045.4417    24   263119.0000   263034.0000  3941741    0.03%
 1041189 353288   263045.4417    25   263119.0000   263034.0000  3941742    0.03%
 1041190 353289   263045.4417    25   263119.0000   263034.0000  3941743    0.03%
 1041191 353290   263045.4417    25   263119.0000   263034.0000  3941744    0.03%
 1041192 353290   263045.4417    24   263119.0000   263034.0000  3941747    0.03%
 1041193 353291   263047.6599    23   263119.0000   263034.0000  3941748    0.03%
 1041194 353292   263047.6599    22   263119.0000   263034.0000  3941753    0.03%
Elapsed time = 95.66 sec. (100383.80 ticks, tree = 134.87 MB, solutions = 40)
 1078947 382886   263109.0000    14   263119.0000   263034.0000  4089297    0.03%
 1078948 382887   263109.0000    16   263119.0000   263034.0000  4089298    0.03%
 1078949 382888   263109.0000    16   263119.0000   263034.0000  4089299    0.03%
 1078950 382889   263109.0000    16   263119.0000   263034.0000  4089301    0.03%
 1078951 382890   263109.0000    14   263119.0000   263034.0000  4089302    0.03%
 1078952 382891   263109.0000    14   263119.0000   263034.0000  4089303    0.03%
 1078953 382892   263109.0000    13   263119.0000   263034.0000  4089304    0.03%
 1078954 382891        cutoff         263119.0000   263034.0000  4089305    0.03%
 1078955 382892   263109.0000    14   263119.0000   263034.0000  4089314    0.03%
 1078956 382891        cutoff         263119.0000   263034.0000  4089316    0.03%
Elapsed time = 99.84 sec. (104199.03 ticks, tree = 144.16 MB, solutions = 40)

Cover cuts applied:  57
Lift and project cuts applied:  1
Gomory fractional cuts applied:  1

Root node processing (before b&c):
  Real time             =    0.10 sec. (101.19 ticks)
Sequential b&c:
  Real time             =   99.90 sec. (104334.75 ticks)
                          ------------
Total (root+branch&cut) =  100.00 sec. (104435.94 ticks)

Solution pool: 40 solutions saved.

MIP - Time limit exceeded, integer feasible:  Objective =  2.6311900000e+05
Current MIP best bound =  2.6303400000e+05 (gap = 85, 0.03%)
Solution time =  100.00 sec.  Iterations = 4095644  Nodes = 1080657 (384116)
Deterministic time = 104435.95 ticks  (1044.35 ticks/sec)


Incumbent solution written to file '/tmp/tmpYaI82v.cplex.sol'.
